32	0

0	1	2
10	1	3
5	2	4	5
9	1	7
8	1	6
2	1	7
1	1	8
1	1	9
5	2	10	11
3	1	12
3	1	12
8	1	13
6	1	14
9	1	15
2	2	16	17
10	1	18
3	1	18
6	1	19
4	2	20	21
6	1	22
6	1	22
2	1	23
3	1	24
1	1	25
10	1	26
5	1	27
1	1	28
4	1	29
5	1	30
7	1	31
8	1	32
0	0
